0 0 0 0
0 1 0 0
0 2 2 0
0 3 0 0
0 4 0 1
0 5 1 8
0 6 1 2
0 7 0 7
0 8 0 2
0 9 1 7
0 10 0 6
0 11 0 7
0 12 1 2
0 13 2 1
0 14 0 5
0 15 1 7
0 16 0 9
0 17 1 10
0 18 0 10
0 19 1 1
0 20 0 10
0 21 1 7
0 22 0 11
0 23 0 16
0 24 0 14
0 25 0 16
0 26 1 12
0 27 0 17
0 28 0 14
0 29 0 19
0 30 1 17
0 31 0 23
